100
100
100
100
98
98
97
97
94
93
93
92
92
92
91
91
91
90
89
89
89
88
87
86
85
83
83
83
82
81
80
80
80
79
79
78
77
77
77
77
77
75
75
74
74
74
72
70
69
69
69
66
66
66
66
65
64
64
63
62
61
61
60
60
60
58
57
57
56
56
54
52
50
49
49
48
47
46
44
43
42
42
40
40
40
40
39
39
39
39
38
38
38
38
36
36
35
35
35
34
33
32
